% Número total de personas
n = 120;

% Número de opiniones posibles
m = 3;

% Distribución inicial de personas por opinión
p = [59, 29, 32];

% Valores de las opiniones
v = [0.008, 0.580, 0.831];

% Costos extras al mover a opiniones vacías
ce = [17.036, 4.383, 5.521];

% Matriz de costos de mover de una opinión a otra
c = array2d(1..3, 1..3,
  [
    0.000,    1.398,    4.271,
    4.272,    0.000,    1.765,
    0.452,    5.940,    0.000
  ]);

% Costo total máximo permitido
ct = 38.760;

% Número máximo de movimientos permitidos
maxM = 44;
